
Welcome to IBM(R) ILOG(R) CPLEX(R) Interactive Optimizer 22.1.1.0
  with Simplex, Mixed Integer & Barrier Optimizers
5725-A06 5725-A29 5724-Y48 5724-Y49 5724-Y54 5724-Y55 5655-Y21
Copyright IBM Corp. 1988, 2022.  All Rights Reserved.

Type 'help' for a list of available commands.
Type 'help' followed by a command name for more
information on commands.

CPLEX> Selected objective sense:  MINIMIZE
Selected objective  name:  00000000
Selected RHS        name:  RHS1
Selected bound      name:  BOUND
Problem 'ee.mps' read.
Read time = 0.03 sec. (3.14 ticks)
CPLEX> New value for time limit in seconds: 7200
CPLEX> New value for parallel optimization mode: -1
CPLEX> New value for default parallel thread count: 40
CPLEX> New value for mixed integer optimality gap tolerance: 1e-13
CPLEX> Version identifier: 22.1.1.0 | 2022-11-28 | 9160aff4d
CPXPARAM_Threads                                 40
CPXPARAM_Parallel                                -1
CPXPARAM_TimeLimit                               7200
CPXPARAM_MIP_Tolerances_MIPGap                   1e-13
Found incumbent of value 0.000000 after 0.00 sec. (0.31 ticks)
Tried aggregator 2 times.
MIP Presolve eliminated 179 rows and 2745 columns.
MIP Presolve modified 5862 coefficients.
Aggregator did 713 substitutions.
Reduced MIP has 3624 rows, 7739 columns, and 28645 nonzeros.
Reduced MIP has 7739 binaries, 0 generals, 0 SOSs, and 0 indicators.
Presolve time = 0.07 sec. (68.58 ticks)
Probing time = 0.03 sec. (5.46 ticks)
Tried aggregator 1 time.
Detecting symmetries...
Reduced MIP has 3624 rows, 7739 columns, and 28645 nonzeros.
Reduced MIP has 7739 binaries, 0 generals, 0 SOSs, and 0 indicators.
Presolve time = 0.03 sec. (21.85 ticks)
Probing time = 0.02 sec. (5.27 ticks)
Clique table members: 18552.
MIP emphasis: balance optimality and feasibility.
MIP search method: dynamic search.
Parallel mode: opportunistic, using up to 40 threads.
Root relaxation solution time = 0.12 sec. (112.13 ticks)

        Nodes                                         Cuts/
   Node  Left     Objective  IInf  Best Integer    Best Bound    ItCnt     Gap

*     0+    0                            0.0000  -1.31000e+13              --- 
*     0+    0                      -3.30000e+12  -1.31000e+13           296.97%
*     0+    0                      -4.40000e+12  -1.31000e+13           197.73%
*     0+    0                      -5.50000e+12  -1.31000e+13           138.18%
      0     0  -1.30900e+13    28  -5.50000e+12  -1.30900e+13     2425  138.00%
*     0+    0                      -1.30900e+13  -1.30900e+13             0.00%
      0     0  -1.30900e+13    75  -1.30900e+13      Cuts: 55     2663    0.00%
*     0+    0                      -1.30900e+13  -1.30900e+13             0.00%
      0     0  -1.30900e+13   122  -1.30900e+13      Cuts: 48     2876    0.00%

Repeating presolve.
Tried aggregator 3 times.
MIP Presolve eliminated 2108 rows and 4580 columns.
MIP Presolve modified 12 coefficients.
Aggregator did 564 substitutions.
Reduced MIP has 952 rows, 2531 columns, and 8735 nonzeros.
Reduced MIP has 2531 binaries, 0 generals, 0 SOSs, and 0 indicators.
Presolve time = 0.05 sec. (51.09 ticks)
Probing time = 0.00 sec. (2.91 ticks)
Tried aggregator 1 time.
Detecting symmetries...
Reduced MIP has 952 rows, 2531 columns, and 8735 nonzeros.
Reduced MIP has 2531 binaries, 0 generals, 0 SOSs, and 0 indicators.
Presolve time = 0.01 sec. (9.55 ticks)
Represolve time = 0.07 sec. (74.92 ticks)
Probing time = 0.00 sec. (2.85 ticks)
Clique table members: 5866.
MIP emphasis: balance optimality and feasibility.
MIP search method: dynamic search.
Parallel mode: opportunistic, using up to 40 threads.
Root relaxation solution time = 0.05 sec. (31.91 ticks)

        Nodes                                         Cuts/
   Node  Left     Objective  IInf  Best Integer    Best Bound    ItCnt     Gap

*     0+    0                      -1.30900e+13  -1.30900e+13             0.00%
      0     0  -1.30900e+13    54  -1.30900e+13  -1.30900e+13     3803    0.00%
      0     0  -1.30900e+13    13  -1.30900e+13      Cuts: 70     3973    0.00%
      0     0  -1.30900e+13    62  -1.30900e+13      Cuts: 29     4024    0.00%
      0     0  -1.30900e+13    65  -1.30900e+13      Cuts: 52     4120    0.00%
      0     2  -1.30900e+13    65  -1.30900e+13  -1.30900e+13     4120    0.00%
Elapsed time = 1.51 sec. (983.92 ticks, tree = 0.02 MB, solutions = 7)
*   814     5      integral     0  -1.30900e+13  -1.30900e+13    30263    0.00%

GUB cover cuts applied:  4
Clique cuts applied:  59
Cover cuts applied:  181
Mixed integer rounding cuts applied:  1
Zero-half cuts applied:  17
Lift and project cuts applied:  6
Gomory fractional cuts applied:  8

Root node processing (before b&c):
  Real time             =    1.26 sec. (984.27 ticks)
Parallel b&c, 40 threads:
  Real time             =    0.54 sec. (128.07 ticks)
  Sync time (average)   =    0.22 sec.
  Wait time (average)   =    0.00 sec.
                          ------------
Total (root+branch&cut) =    1.80 sec. (1112.34 ticks)

Solution pool: 14 solutions saved.

MIP - Integer optimal solution:  Objective = -1.3089999989e+13
Solution time =    1.85 sec.  Iterations = 30394  Nodes = 816
Deterministic time = 1112.38 ticks  (600.70 ticks/sec)

CPLEX> Solution 'p15' written to file 'ee.sol'.
CPLEX> 